p cnf 388 3072
-1 -113 0
-1 -114 0
113 -113 0
114 -114 0
-15 -125 0
-15 -126 0
125 -125 0
126 -126 0
-29 -137 0
-29 -138 0
137 -137 0
138 -138 0
-43 -149 0
-43 -150 0
149 -149 0
150 -150 0
-57 -161 0
-57 -162 0
161 -161 0
162 -162 0
-71 -173 0
-71 -174 0
173 -173 0
174 -174 0
-85 -185 0
-85 -186 0
185 -185 0
186 -186 0
-99 -197 0
-99 -198 0
197 -197 0
198 -198 0
2 -113 0
2 -114 0
113 -113 0
114 -114 0
16 -125 0
16 -126 0
125 -125 0
126 -126 0
30 -137 0
30 -138 0
137 -137 0
138 -138 0
44 -149 0
44 -150 0
149 -149 0
150 -150 0
58 -161 0
58 -162 0
161 -161 0
162 -162 0
72 -173 0
72 -174 0
173 -173 0
174 -174 0
86 -185 0
86 -186 0
185 -185 0
186 -186 0
100 -197 0
100 -198 0
197 -197 0
198 -198 0
3 -113 0
3 -114 0
113 -113 0
114 -114 0
17 -125 0
17 -126 0
125 -125 0
126 -126 0
31 -137 0
31 -138 0
137 -137 0
138 -138 0
45 -149 0
45 -150 0
149 -149 0
150 -150 0
59 -161 0
59 -162 0
161 -161 0
162 -162 0
73 -173 0
73 -174 0
173 -173 0
174 -174 0
87 -185 0
87 -186 0
185 -185 0
186 -186 0
101 -197 0
101 -198 0
197 -197 0
198 -198 0
4 -209 -113 0
-4 209 -113 0
4 209 -114 0
-4 -209 -114 0
18 -209 -125 0
-18 209 -125 0
18 209 -126 0
-18 -209 -126 0
32 -209 -137 0
-32 209 -137 0
32 209 -138 0
-32 -209 -138 0
46 -209 -149 0
-46 209 -149 0
46 209 -150 0
-46 -209 -150 0
60 -209 -161 0
-60 209 -161 0
60 209 -162 0
-60 -209 -162 0
74 -209 -173 0
-74 209 -173 0
74 209 -174 0
-74 -209 -174 0
88 -209 -185 0
-88 209 -185 0
88 209 -186 0
-88 -209 -186 0
102 -209 -197 0
-102 209 -197 0
102 209 -198 0
-102 -209 -198 0
5 -113 0
5 -114 0
113 -113 0
114 -114 0
19 -125 0
19 -126 0
125 -125 0
126 -126 0
33 -137 0
33 -138 0
137 -137 0
138 -138 0
47 -149 0
47 -150 0
149 -149 0
150 -150 0
61 -161 0
61 -162 0
161 -161 0
162 -162 0
75 -173 0
75 -174 0
173 -173 0
174 -174 0
89 -185 0
89 -186 0
185 -185 0
186 -186 0
103 -197 0
103 -198 0
197 -197 0
198 -198 0
-6 -113 0
-6 -114 0
113 -113 0
114 -114 0
-20 -125 0
-20 -126 0
125 -125 0
126 -126 0
-34 -137 0
-34 -138 0
137 -137 0
138 -138 0
-48 -149 0
-48 -150 0
149 -149 0
150 -150 0
-62 -161 0
-62 -162 0
161 -161 0
162 -162 0
-76 -173 0
-76 -174 0
173 -173 0
174 -174 0
-90 -185 0
-90 -186 0
185 -185 0
186 -186 0
-104 -197 0
-104 -198 0
197 -197 0
198 -198 0
7 -113 0
7 -114 0
113 -113 0
114 -114 0
21 -125 0
21 -126 0
125 -125 0
126 -126 0
35 -137 0
35 -138 0
137 -137 0
138 -138 0
49 -149 0
49 -150 0
149 -149 0
150 -150 0
63 -161 0
63 -162 0
161 -161 0
162 -162 0
77 -173 0
77 -174 0
173 -173 0
174 -174 0
91 -185 0
91 -186 0
185 -185 0
186 -186 0
105 -197 0
105 -198 0
197 -197 0
198 -198 0
8 -210 -113 0
-8 210 -113 0
8 210 -114 0
-8 -210 -114 0
22 -210 -125 0
-22 210 -125 0
22 210 -126 0
-22 -210 -126 0
36 -210 -137 0
-36 210 -137 0
36 210 -138 0
-36 -210 -138 0
50 -210 -149 0
-50 210 -149 0
50 210 -150 0
-50 -210 -150 0
64 -210 -161 0
-64 210 -161 0
64 210 -162 0
-64 -210 -162 0
78 -210 -173 0
-78 210 -173 0
78 210 -174 0
-78 -210 -174 0
92 -210 -185 0
-92 210 -185 0
92 210 -186 0
-92 -210 -186 0
106 -210 -197 0
-106 210 -197 0
106 210 -198 0
-106 -210 -198 0
-9 -113 0
-9 -114 0
113 -113 0
114 -114 0
-23 -125 0
-23 -126 0
125 -125 0
126 -126 0
-37 -137 0
-37 -138 0
137 -137 0
138 -138 0
-51 -149 0
-51 -150 0
149 -149 0
150 -150 0
-65 -161 0
-65 -162 0
161 -161 0
162 -162 0
-79 -173 0
-79 -174 0
173 -173 0
174 -174 0
-93 -185 0
-93 -186 0
185 -185 0
186 -186 0
-107 -197 0
-107 -198 0
197 -197 0
198 -198 0
10 -211 -113 0
-10 211 -113 0
10 211 -114 0
-10 -211 -114 0
24 -211 -125 0
-24 211 -125 0
24 211 -126 0
-24 -211 -126 0
38 -211 -137 0
-38 211 -137 0
38 211 -138 0
-38 -211 -138 0
52 -211 -149 0
-52 211 -149 0
52 211 -150 0
-52 -211 -150 0
66 -211 -161 0
-66 211 -161 0
66 211 -162 0
-66 -211 -162 0
80 -211 -173 0
-80 211 -173 0
80 211 -174 0
-80 -211 -174 0
94 -211 -185 0
-94 211 -185 0
94 211 -186 0
-94 -211 -186 0
108 -211 -197 0
-108 211 -197 0
108 211 -198 0
-108 -211 -198 0
11 -212 -113 0
-11 212 -113 0
11 212 -114 0
-11 -212 -114 0
25 -212 -125 0
-25 212 -125 0
25 212 -126 0
-25 -212 -126 0
39 -212 -137 0
-39 212 -137 0
39 212 -138 0
-39 -212 -138 0
53 -212 -149 0
-53 212 -149 0
53 212 -150 0
-53 -212 -150 0
67 -212 -161 0
-67 212 -161 0
67 212 -162 0
-67 -212 -162 0
81 -212 -173 0
-81 212 -173 0
81 212 -174 0
-81 -212 -174 0
95 -212 -185 0
-95 212 -185 0
95 212 -186 0
-95 -212 -186 0
109 -212 -197 0
-109 212 -197 0
109 212 -198 0
-109 -212 -198 0
12 -113 0
12 -114 0
113 -113 0
114 -114 0
26 -125 0
26 -126 0
125 -125 0
126 -126 0
40 -137 0
40 -138 0
137 -137 0
138 -138 0
54 -149 0
54 -150 0
149 -149 0
150 -150 0
68 -161 0
68 -162 0
161 -161 0
162 -162 0
82 -173 0
82 -174 0
173 -173 0
174 -174 0
96 -185 0
96 -186 0
185 -185 0
186 -186 0
110 -197 0
110 -198 0
197 -197 0
198 -198 0
13 -213 -113 0
-13 213 -113 0
13 213 -114 0
-13 -213 -114 0
27 -213 -125 0
-27 213 -125 0
27 213 -126 0
-27 -213 -126 0
41 -213 -137 0
-41 213 -137 0
41 213 -138 0
-41 -213 -138 0
55 -213 -149 0
-55 213 -149 0
55 213 -150 0
-55 -213 -150 0
69 -213 -161 0
-69 213 -161 0
69 213 -162 0
-69 -213 -162 0
83 -213 -173 0
-83 213 -173 0
83 213 -174 0
-83 -213 -174 0
97 -213 -185 0
-97 213 -185 0
97 213 -186 0
-97 -213 -186 0
111 -213 -197 0
-111 213 -197 0
111 213 -198 0
-111 -213 -198 0
14 -214 -113 0
-14 214 -113 0
14 214 -114 0
-14 -214 -114 0
28 -214 -125 0
-28 214 -125 0
28 214 -126 0
-28 -214 -126 0
42 -214 -137 0
-42 214 -137 0
42 214 -138 0
-42 -214 -138 0
56 -214 -149 0
-56 214 -149 0
56 214 -150 0
-56 -214 -150 0
70 -214 -161 0
-70 214 -161 0
70 214 -162 0
-70 -214 -162 0
84 -214 -173 0
-84 214 -173 0
84 214 -174 0
-84 -214 -174 0
98 -214 -185 0
-98 214 -185 0
98 214 -186 0
-98 -214 -186 0
112 -214 -197 0
-112 214 -197 0
112 214 -198 0
-112 -214 -198 0
-293 113 0
293 -113 0
-294 114 0
293 -114 0
-293 -113 0
-294 -114 0
-305 113 293 0
305 -113 0
305 -293 0
-306 114 294 0
306 -114 0
306 -294 0
-305 -125 0
-306 -126 0
-317 125 305 0
317 -125 0
317 -305 0
-318 126 306 0
318 -126 0
318 -306 0
-317 -137 0
-318 -138 0
-329 137 317 0
329 -137 0
329 -317 0
-330 138 318 0
330 -138 0
330 -318 0
-329 -149 0
-330 -150 0
-341 149 329 0
341 -149 0
341 -329 0
-342 150 330 0
342 -150 0
342 -330 0
-341 -161 0
-342 -162 0
-353 161 341 0
353 -161 0
353 -341 0
-354 162 342 0
354 -162 0
354 -342 0
-353 -173 0
-354 -174 0
-365 173 353 0
365 -173 0
365 -353 0
-366 174 354 0
366 -174 0
366 -354 0
-365 -185 0
-366 -186 0
-377 185 365 0
377 -185 0
377 -365 0
-378 186 366 0
378 -186 0
378 -366 0
-377 -197 0
-378 -198 0
377 0
378 0
1 -215 -115 0
-1 215 -115 0
1 215 -116 0
-1 -215 -116 0
15 -215 -127 0
-15 215 -127 0
15 215 -128 0
-15 -215 -128 0
29 -215 -139 0
-29 215 -139 0
29 215 -140 0
-29 -215 -140 0
43 -215 -151 0
-43 215 -151 0
43 215 -152 0
-43 -215 -152 0
57 -215 -163 0
-57 215 -163 0
57 215 -164 0
-57 -215 -164 0
71 -215 -175 0
-71 215 -175 0
71 215 -176 0
-71 -215 -176 0
85 -215 -187 0
-85 215 -187 0
85 215 -188 0
-85 -215 -188 0
99 -215 -199 0
-99 215 -199 0
99 215 -200 0
-99 -215 -200 0
2 -115 0
2 -116 0
115 -115 0
116 -116 0
16 -127 0
16 -128 0
127 -127 0
128 -128 0
30 -139 0
30 -140 0
139 -139 0
140 -140 0
44 -151 0
44 -152 0
151 -151 0
152 -152 0
58 -163 0
58 -164 0
163 -163 0
164 -164 0
72 -175 0
72 -176 0
175 -175 0
176 -176 0
86 -187 0
86 -188 0
187 -187 0
188 -188 0
100 -199 0
100 -200 0
199 -199 0
200 -200 0
3 -115 0
3 -116 0
115 -115 0
116 -116 0
17 -127 0
17 -128 0
127 -127 0
128 -128 0
31 -139 0
31 -140 0
139 -139 0
140 -140 0
45 -151 0
45 -152 0
151 -151 0
152 -152 0
59 -163 0
59 -164 0
163 -163 0
164 -164 0
73 -175 0
73 -176 0
175 -175 0
176 -176 0
87 -187 0
87 -188 0
187 -187 0
188 -188 0
101 -199 0
101 -200 0
199 -199 0
200 -200 0
4 -115 0
4 -116 0
115 -115 0
116 -116 0
18 -127 0
18 -128 0
127 -127 0
128 -128 0
32 -139 0
32 -140 0
139 -139 0
140 -140 0
46 -151 0
46 -152 0
151 -151 0
152 -152 0
60 -163 0
60 -164 0
163 -163 0
164 -164 0
74 -175 0
74 -176 0
175 -175 0
176 -176 0
88 -187 0
88 -188 0
187 -187 0
188 -188 0
102 -199 0
102 -200 0
199 -199 0
200 -200 0
5 -216 -115 0
-5 216 -115 0
5 216 -116 0
-5 -216 -116 0
19 -216 -127 0
-19 216 -127 0
19 216 -128 0
-19 -216 -128 0
33 -216 -139 0
-33 216 -139 0
33 216 -140 0
-33 -216 -140 0
47 -216 -151 0
-47 216 -151 0
47 216 -152 0
-47 -216 -152 0
61 -216 -163 0
-61 216 -163 0
61 216 -164 0
-61 -216 -164 0
75 -216 -175 0
-75 216 -175 0
75 216 -176 0
-75 -216 -176 0
89 -216 -187 0
-89 216 -187 0
89 216 -188 0
-89 -216 -188 0
103 -216 -199 0
-103 216 -199 0
103 216 -200 0
-103 -216 -200 0
-6 -115 0
-6 -116 0
115 -115 0
116 -116 0
-20 -127 0
-20 -128 0
127 -127 0
128 -128 0
-34 -139 0
-34 -140 0
139 -139 0
140 -140 0
-48 -151 0
-48 -152 0
151 -151 0
152 -152 0
-62 -163 0
-62 -164 0
163 -163 0
164 -164 0
-76 -175 0
-76 -176 0
175 -175 0
176 -176 0
-90 -187 0
-90 -188 0
187 -187 0
188 -188 0
-104 -199 0
-104 -200 0
199 -199 0
200 -200 0
7 -217 -115 0
-7 217 -115 0
7 217 -116 0
-7 -217 -116 0
21 -217 -127 0
-21 217 -127 0
21 217 -128 0
-21 -217 -128 0
35 -217 -139 0
-35 217 -139 0
35 217 -140 0
-35 -217 -140 0
49 -217 -151 0
-49 217 -151 0
49 217 -152 0
-49 -217 -152 0
63 -217 -163 0
-63 217 -163 0
63 217 -164 0
-63 -217 -164 0
77 -217 -175 0
-77 217 -175 0
77 217 -176 0
-77 -217 -176 0
91 -217 -187 0
-91 217 -187 0
91 217 -188 0
-91 -217 -188 0
105 -217 -199 0
-105 217 -199 0
105 217 -200 0
-105 -217 -200 0
8 -115 0
8 -116 0
115 -115 0
116 -116 0
22 -127 0
22 -128 0
127 -127 0
128 -128 0
36 -139 0
36 -140 0
139 -139 0
140 -140 0
50 -151 0
50 -152 0
151 -151 0
152 -152 0
64 -163 0
64 -164 0
163 -163 0
164 -164 0
78 -175 0
78 -176 0
175 -175 0
176 -176 0
92 -187 0
92 -188 0
187 -187 0
188 -188 0
106 -199 0
106 -200 0
199 -199 0
200 -200 0
-9 -115 0
-9 -116 0
115 -115 0
116 -116 0
-23 -127 0
-23 -128 0
127 -127 0
128 -128 0
-37 -139 0
-37 -140 0
139 -139 0
140 -140 0
-51 -151 0
-51 -152 0
151 -151 0
152 -152 0
-65 -163 0
-65 -164 0
163 -163 0
164 -164 0
-79 -175 0
-79 -176 0
175 -175 0
176 -176 0
-93 -187 0
-93 -188 0
187 -187 0
188 -188 0
-107 -199 0
-107 -200 0
199 -199 0
200 -200 0
10 -218 -115 0
-10 218 -115 0
10 218 -116 0
-10 -218 -116 0
24 -218 -127 0
-24 218 -127 0
24 218 -128 0
-24 -218 -128 0
38 -218 -139 0
-38 218 -139 0
38 218 -140 0
-38 -218 -140 0
52 -218 -151 0
-52 218 -151 0
52 218 -152 0
-52 -218 -152 0
66 -218 -163 0
-66 218 -163 0
66 218 -164 0
-66 -218 -164 0
80 -218 -175 0
-80 218 -175 0
80 218 -176 0
-80 -218 -176 0
94 -218 -187 0
-94 218 -187 0
94 218 -188 0
-94 -218 -188 0
108 -218 -199 0
-108 218 -199 0
108 218 -200 0
-108 -218 -200 0
11 -115 0
11 -116 0
115 -115 0
116 -116 0
25 -127 0
25 -128 0
127 -127 0
128 -128 0
39 -139 0
39 -140 0
139 -139 0
140 -140 0
53 -151 0
53 -152 0
151 -151 0
152 -152 0
67 -163 0
67 -164 0
163 -163 0
164 -164 0
81 -175 0
81 -176 0
175 -175 0
176 -176 0
95 -187 0
95 -188 0
187 -187 0
188 -188 0
109 -199 0
109 -200 0
199 -199 0
200 -200 0
12 -115 0
12 -116 0
115 -115 0
116 -116 0
26 -127 0
26 -128 0
127 -127 0
128 -128 0
40 -139 0
40 -140 0
139 -139 0
140 -140 0
54 -151 0
54 -152 0
151 -151 0
152 -152 0
68 -163 0
68 -164 0
163 -163 0
164 -164 0
82 -175 0
82 -176 0
175 -175 0
176 -176 0
96 -187 0
96 -188 0
187 -187 0
188 -188 0
110 -199 0
110 -200 0
199 -199 0
200 -200 0
13 -115 0
13 -116 0
115 -115 0
116 -116 0
27 -127 0
27 -128 0
127 -127 0
128 -128 0
41 -139 0
41 -140 0
139 -139 0
140 -140 0
55 -151 0
55 -152 0
151 -151 0
152 -152 0
69 -163 0
69 -164 0
163 -163 0
164 -164 0
83 -175 0
83 -176 0
175 -175 0
176 -176 0
97 -187 0
97 -188 0
187 -187 0
188 -188 0
111 -199 0
111 -200 0
199 -199 0
200 -200 0
14 -115 0
14 -116 0
115 -115 0
116 -116 0
28 -127 0
28 -128 0
127 -127 0
128 -128 0
42 -139 0
42 -140 0
139 -139 0
140 -140 0
56 -151 0
56 -152 0
151 -151 0
152 -152 0
70 -163 0
70 -164 0
163 -163 0
164 -164 0
84 -175 0
84 -176 0
175 -175 0
176 -176 0
98 -187 0
98 -188 0
187 -187 0
188 -188 0
112 -199 0
112 -200 0
199 -199 0
200 -200 0
-295 115 0
295 -115 0
-296 116 0
295 -116 0
-295 -115 0
-296 -116 0
-307 115 295 0
307 -115 0
307 -295 0
-308 116 296 0
308 -116 0
308 -296 0
-307 -127 0
-308 -128 0
-319 127 307 0
319 -127 0
319 -307 0
-320 128 308 0
320 -128 0
320 -308 0
-319 -139 0
-320 -140 0
-331 139 319 0
331 -139 0
331 -319 0
-332 140 320 0
332 -140 0
332 -320 0
-331 -151 0
-332 -152 0
-343 151 331 0
343 -151 0
343 -331 0
-344 152 332 0
344 -152 0
344 -332 0
-343 -163 0
-344 -164 0
-355 163 343 0
355 -163 0
355 -343 0
-356 164 344 0
356 -164 0
356 -344 0
-355 -175 0
-356 -176 0
-367 175 355 0
367 -175 0
367 -355 0
-368 176 356 0
368 -176 0
368 -356 0
-367 -187 0
-368 -188 0
-379 187 367 0
379 -187 0
379 -367 0
-380 188 368 0
380 -188 0
380 -368 0
-379 -199 0
-380 -200 0
379 0
380 0
1 -117 0
1 -118 0
117 -117 0
118 -118 0
15 -129 0
15 -130 0
129 -129 0
130 -130 0
29 -141 0
29 -142 0
141 -141 0
142 -142 0
43 -153 0
43 -154 0
153 -153 0
154 -154 0
57 -165 0
57 -166 0
165 -165 0
166 -166 0
71 -177 0
71 -178 0
177 -177 0
178 -178 0
85 -189 0
85 -190 0
189 -189 0
190 -190 0
99 -201 0
99 -202 0
201 -201 0
202 -202 0
2 -117 0
2 -118 0
117 -117 0
118 -118 0
16 -129 0
16 -130 0
129 -129 0
130 -130 0
30 -141 0
30 -142 0
141 -141 0
142 -142 0
44 -153 0
44 -154 0
153 -153 0
154 -154 0
58 -165 0
58 -166 0
165 -165 0
166 -166 0
72 -177 0
72 -178 0
177 -177 0
178 -178 0
86 -189 0
86 -190 0
189 -189 0
190 -190 0
100 -201 0
100 -202 0
201 -201 0
202 -202 0
3 -117 0
3 -118 0
117 -117 0
118 -118 0
17 -129 0
17 -130 0
129 -129 0
130 -130 0
31 -141 0
31 -142 0
141 -141 0
142 -142 0
45 -153 0
45 -154 0
153 -153 0
154 -154 0
59 -165 0
59 -166 0
165 -165 0
166 -166 0
73 -177 0
73 -178 0
177 -177 0
178 -178 0
87 -189 0
87 -190 0
189 -189 0
190 -190 0
101 -201 0
101 -202 0
201 -201 0
202 -202 0
4 -219 -117 0
-4 219 -117 0
4 219 -118 0
-4 -219 -118 0
18 -219 -129 0
-18 219 -129 0
18 219 -130 0
-18 -219 -130 0
32 -219 -141 0
-32 219 -141 0
32 219 -142 0
-32 -219 -142 0
46 -219 -153 0
-46 219 -153 0
46 219 -154 0
-46 -219 -154 0
60 -219 -165 0
-60 219 -165 0
60 219 -166 0
-60 -219 -166 0
74 -219 -177 0
-74 219 -177 0
74 219 -178 0
-74 -219 -178 0
88 -219 -189 0
-88 219 -189 0
88 219 -190 0
-88 -219 -190 0
102 -219 -201 0
-102 219 -201 0
102 219 -202 0
-102 -219 -202 0
5 -220 -117 0
-5 220 -117 0
5 220 -118 0
-5 -220 -118 0
19 -220 -129 0
-19 220 -129 0
19 220 -130 0
-19 -220 -130 0
33 -220 -141 0
-33 220 -141 0
33 220 -142 0
-33 -220 -142 0
47 -220 -153 0
-47 220 -153 0
47 220 -154 0
-47 -220 -154 0
61 -220 -165 0
-61 220 -165 0
61 220 -166 0
-61 -220 -166 0
75 -220 -177 0
-75 220 -177 0
75 220 -178 0
-75 -220 -178 0
89 -220 -189 0
-89 220 -189 0
89 220 -190 0
-89 -220 -190 0
103 -220 -201 0
-103 220 -201 0
103 220 -202 0
-103 -220 -202 0
6 -221 -117 0
-6 221 -117 0
6 221 -118 0
-6 -221 -118 0
20 -221 -129 0
-20 221 -129 0
20 221 -130 0
-20 -221 -130 0
34 -221 -141 0
-34 221 -141 0
34 221 -142 0
-34 -221 -142 0
48 -221 -153 0
-48 221 -153 0
48 221 -154 0
-48 -221 -154 0
62 -221 -165 0
-62 221 -165 0
62 221 -166 0
-62 -221 -166 0
76 -221 -177 0
-76 221 -177 0
76 221 -178 0
-76 -221 -178 0
90 -221 -189 0
-90 221 -189 0
90 221 -190 0
-90 -221 -190 0
104 -221 -201 0
-104 221 -201 0
104 221 -202 0
-104 -221 -202 0
7 -222 -117 0
-7 222 -117 0
7 222 -118 0
-7 -222 -118 0
21 -222 -129 0
-21 222 -129 0
21 222 -130 0
-21 -222 -130 0
35 -222 -141 0
-35 222 -141 0
35 222 -142 0
-35 -222 -142 0
49 -222 -153 0
-49 222 -153 0
49 222 -154 0
-49 -222 -154 0
63 -222 -165 0
-63 222 -165 0
63 222 -166 0
-63 -222 -166 0
77 -222 -177 0
-77 222 -177 0
77 222 -178 0
-77 -222 -178 0
91 -222 -189 0
-91 222 -189 0
91 222 -190 0
-91 -222 -190 0
105 -222 -201 0
-105 222 -201 0
105 222 -202 0
-105 -222 -202 0
8 -223 -117 0
-8 223 -117 0
8 223 -118 0
-8 -223 -118 0
22 -223 -129 0
-22 223 -129 0
22 223 -130 0
-22 -223 -130 0
36 -223 -141 0
-36 223 -141 0
36 223 -142 0
-36 -223 -142 0
50 -223 -153 0
-50 223 -153 0
50 223 -154 0
-50 -223 -154 0
64 -223 -165 0
-64 223 -165 0
64 223 -166 0
-64 -223 -166 0
78 -223 -177 0
-78 223 -177 0
78 223 -178 0
-78 -223 -178 0
92 -223 -189 0
-92 223 -189 0
92 223 -190 0
-92 -223 -190 0
106 -223 -201 0
-106 223 -201 0
106 223 -202 0
-106 -223 -202 0
9 -224 -117 0
-9 224 -117 0
9 224 -118 0
-9 -224 -118 0
23 -224 -129 0
-23 224 -129 0
23 224 -130 0
-23 -224 -130 0
37 -224 -141 0
-37 224 -141 0
37 224 -142 0
-37 -224 -142 0
51 -224 -153 0
-51 224 -153 0
51 224 -154 0
-51 -224 -154 0
65 -224 -165 0
-65 224 -165 0
65 224 -166 0
-65 -224 -166 0
79 -224 -177 0
-79 224 -177 0
79 224 -178 0
-79 -224 -178 0
93 -224 -189 0
-93 224 -189 0
93 224 -190 0
-93 -224 -190 0
107 -224 -201 0
-107 224 -201 0
107 224 -202 0
-107 -224 -202 0
-10 -117 0
-10 -118 0
117 -117 0
118 -118 0
-24 -129 0
-24 -130 0
129 -129 0
130 -130 0
-38 -141 0
-38 -142 0
141 -141 0
142 -142 0
-52 -153 0
-52 -154 0
153 -153 0
154 -154 0
-66 -165 0
-66 -166 0
165 -165 0
166 -166 0
-80 -177 0
-80 -178 0
177 -177 0
178 -178 0
-94 -189 0
-94 -190 0
189 -189 0
190 -190 0
-108 -201 0
-108 -202 0
201 -201 0
202 -202 0
11 -117 0
11 -118 0
117 -117 0
118 -118 0
25 -129 0
25 -130 0
129 -129 0
130 -130 0
39 -141 0
39 -142 0
141 -141 0
142 -142 0
53 -153 0
53 -154 0
153 -153 0
154 -154 0
67 -165 0
67 -166 0
165 -165 0
166 -166 0
81 -177 0
81 -178 0
177 -177 0
178 -178 0
95 -189 0
95 -190 0
189 -189 0
190 -190 0
109 -201 0
109 -202 0
201 -201 0
202 -202 0
12 -117 0
12 -118 0
117 -117 0
118 -118 0
26 -129 0
26 -130 0
129 -129 0
130 -130 0
40 -141 0
40 -142 0
141 -141 0
142 -142 0
54 -153 0
54 -154 0
153 -153 0
154 -154 0
68 -165 0
68 -166 0
165 -165 0
166 -166 0
82 -177 0
82 -178 0
177 -177 0
178 -178 0
96 -189 0
96 -190 0
189 -189 0
190 -190 0
110 -201 0
110 -202 0
201 -201 0
202 -202 0
13 -117 0
13 -118 0
117 -117 0
118 -118 0
27 -129 0
27 -130 0
129 -129 0
130 -130 0
41 -141 0
41 -142 0
141 -141 0
142 -142 0
55 -153 0
55 -154 0
153 -153 0
154 -154 0
69 -165 0
69 -166 0
165 -165 0
166 -166 0
83 -177 0
83 -178 0
177 -177 0
178 -178 0
97 -189 0
97 -190 0
189 -189 0
190 -190 0
111 -201 0
111 -202 0
201 -201 0
202 -202 0
-14 -117 0
-14 -118 0
117 -117 0
118 -118 0
-28 -129 0
-28 -130 0
129 -129 0
130 -130 0
-42 -141 0
-42 -142 0
141 -141 0
142 -142 0
-56 -153 0
-56 -154 0
153 -153 0
154 -154 0
-70 -165 0
-70 -166 0
165 -165 0
166 -166 0
-84 -177 0
-84 -178 0
177 -177 0
178 -178 0
-98 -189 0
-98 -190 0
189 -189 0
190 -190 0
-112 -201 0
-112 -202 0
201 -201 0
202 -202 0
-297 117 0
297 -117 0
-298 118 0
297 -118 0
-297 -117 0
-298 -118 0
-309 117 297 0
309 -117 0
309 -297 0
-310 118 298 0
310 -118 0
310 -298 0
-309 -129 0
-310 -130 0
-321 129 309 0
321 -129 0
321 -309 0
-322 130 310 0
322 -130 0
322 -310 0
-321 -141 0
-322 -142 0
-333 141 321 0
333 -141 0
333 -321 0
-334 142 322 0
334 -142 0
334 -322 0
-333 -153 0
-334 -154 0
-345 153 333 0
345 -153 0
345 -333 0
-346 154 334 0
346 -154 0
346 -334 0
-345 -165 0
-346 -166 0
-357 165 345 0
357 -165 0
357 -345 0
-358 166 346 0
358 -166 0
358 -346 0
-357 -177 0
-358 -178 0
-369 177 357 0
369 -177 0
369 -357 0
-370 178 358 0
370 -178 0
370 -358 0
-369 -189 0
-370 -190 0
-381 189 369 0
381 -189 0
381 -369 0
-382 190 370 0
382 -190 0
382 -370 0
-381 -201 0
-382 -202 0
381 0
382 0
1 -119 0
1 -120 0
119 -119 0
120 -120 0
15 -131 0
15 -132 0
131 -131 0
132 -132 0
29 -143 0
29 -144 0
143 -143 0
144 -144 0
43 -155 0
43 -156 0
155 -155 0
156 -156 0
57 -167 0
57 -168 0
167 -167 0
168 -168 0
71 -179 0
71 -180 0
179 -179 0
180 -180 0
85 -191 0
85 -192 0
191 -191 0
192 -192 0
99 -203 0
99 -204 0
203 -203 0
204 -204 0
2 -119 0
2 -120 0
119 -119 0
120 -120 0
16 -131 0
16 -132 0
131 -131 0
132 -132 0
30 -143 0
30 -144 0
143 -143 0
144 -144 0
44 -155 0
44 -156 0
155 -155 0
156 -156 0
58 -167 0
58 -168 0
167 -167 0
168 -168 0
72 -179 0
72 -180 0
179 -179 0
180 -180 0
86 -191 0
86 -192 0
191 -191 0
192 -192 0
100 -203 0
100 -204 0
203 -203 0
204 -204 0
3 -119 0
3 -120 0
119 -119 0
120 -120 0
17 -131 0
17 -132 0
131 -131 0
132 -132 0
31 -143 0
31 -144 0
143 -143 0
144 -144 0
45 -155 0
45 -156 0
155 -155 0
156 -156 0
59 -167 0
59 -168 0
167 -167 0
168 -168 0
73 -179 0
73 -180 0
179 -179 0
180 -180 0
87 -191 0
87 -192 0
191 -191 0
192 -192 0
101 -203 0
101 -204 0
203 -203 0
204 -204 0
-4 -119 0
-4 -120 0
119 -119 0
120 -120 0
-18 -131 0
-18 -132 0
131 -131 0
132 -132 0
-32 -143 0
-32 -144 0
143 -143 0
144 -144 0
-46 -155 0
-46 -156 0
155 -155 0
156 -156 0
-60 -167 0
-60 -168 0
167 -167 0
168 -168 0
-74 -179 0
-74 -180 0
179 -179 0
180 -180 0
-88 -191 0
-88 -192 0
191 -191 0
192 -192 0
-102 -203 0
-102 -204 0
203 -203 0
204 -204 0
5 -119 0
5 -120 0
119 -119 0
120 -120 0
19 -131 0
19 -132 0
131 -131 0
132 -132 0
33 -143 0
33 -144 0
143 -143 0
144 -144 0
47 -155 0
47 -156 0
155 -155 0
156 -156 0
61 -167 0
61 -168 0
167 -167 0
168 -168 0
75 -179 0
75 -180 0
179 -179 0
180 -180 0
89 -191 0
89 -192 0
191 -191 0
192 -192 0
103 -203 0
103 -204 0
203 -203 0
204 -204 0
-6 -119 0
-6 -120 0
119 -119 0
120 -120 0
-20 -131 0
-20 -132 0
131 -131 0
132 -132 0
-34 -143 0
-34 -144 0
143 -143 0
144 -144 0
-48 -155 0
-48 -156 0
155 -155 0
156 -156 0
-62 -167 0
-62 -168 0
167 -167 0
168 -168 0
-76 -179 0
-76 -180 0
179 -179 0
180 -180 0
-90 -191 0
-90 -192 0
191 -191 0
192 -192 0
-104 -203 0
-104 -204 0
203 -203 0
204 -204 0
7 -119 0
7 -120 0
119 -119 0
120 -120 0
21 -131 0
21 -132 0
131 -131 0
132 -132 0
35 -143 0
35 -144 0
143 -143 0
144 -144 0
49 -155 0
49 -156 0
155 -155 0
156 -156 0
63 -167 0
63 -168 0
167 -167 0
168 -168 0
77 -179 0
77 -180 0
179 -179 0
180 -180 0
91 -191 0
91 -192 0
191 -191 0
192 -192 0
105 -203 0
105 -204 0
203 -203 0
204 -204 0
8 -225 -119 0
-8 225 -119 0
8 225 -120 0
-8 -225 -120 0
22 -225 -131 0
-22 225 -131 0
22 225 -132 0
-22 -225 -132 0
36 -225 -143 0
-36 225 -143 0
36 225 -144 0
-36 -225 -144 0
50 -225 -155 0
-50 225 -155 0
50 225 -156 0
-50 -225 -156 0
64 -225 -167 0
-64 225 -167 0
64 225 -168 0
-64 -225 -168 0
78 -225 -179 0
-78 225 -179 0
78 225 -180 0
-78 -225 -180 0
92 -225 -191 0
-92 225 -191 0
92 225 -192 0
-92 -225 -192 0
106 -225 -203 0
-106 225 -203 0
106 225 -204 0
-106 -225 -204 0
9 -226 -119 0
-9 226 -119 0
9 226 -120 0
-9 -226 -120 0
23 -226 -131 0
-23 226 -131 0
23 226 -132 0
-23 -226 -132 0
37 -226 -143 0
-37 226 -143 0
37 226 -144 0
-37 -226 -144 0
51 -226 -155 0
-51 226 -155 0
51 226 -156 0
-51 -226 -156 0
65 -226 -167 0
-65 226 -167 0
65 226 -168 0
-65 -226 -168 0
79 -226 -179 0
-79 226 -179 0
79 226 -180 0
-79 -226 -180 0
93 -226 -191 0
-93 226 -191 0
93 226 -192 0
-93 -226 -192 0
107 -226 -203 0
-107 226 -203 0
107 226 -204 0
-107 -226 -204 0
10 -227 -119 0
-10 227 -119 0
10 227 -120 0
-10 -227 -120 0
24 -227 -131 0
-24 227 -131 0
24 227 -132 0
-24 -227 -132 0
38 -227 -143 0
-38 227 -143 0
38 227 -144 0
-38 -227 -144 0
52 -227 -155 0
-52 227 -155 0
52 227 -156 0
-52 -227 -156 0
66 -227 -167 0
-66 227 -167 0
66 227 -168 0
-66 -227 -168 0
80 -227 -179 0
-80 227 -179 0
80 227 -180 0
-80 -227 -180 0
94 -227 -191 0
-94 227 -191 0
94 227 -192 0
-94 -227 -192 0
108 -227 -203 0
-108 227 -203 0
108 227 -204 0
-108 -227 -204 0
11 -228 -119 0
-11 228 -119 0
11 228 -120 0
-11 -228 -120 0
25 -228 -131 0
-25 228 -131 0
25 228 -132 0
-25 -228 -132 0
39 -228 -143 0
-39 228 -143 0
39 228 -144 0
-39 -228 -144 0
53 -228 -155 0
-53 228 -155 0
53 228 -156 0
-53 -228 -156 0
67 -228 -167 0
-67 228 -167 0
67 228 -168 0
-67 -228 -168 0
81 -228 -179 0
-81 228 -179 0
81 228 -180 0
-81 -228 -180 0
95 -228 -191 0
-95 228 -191 0
95 228 -192 0
-95 -228 -192 0
109 -228 -203 0
-109 228 -203 0
109 228 -204 0
-109 -228 -204 0
12 -119 0
12 -120 0
119 -119 0
120 -120 0
26 -131 0
26 -132 0
131 -131 0
132 -132 0
40 -143 0
40 -144 0
143 -143 0
144 -144 0
54 -155 0
54 -156 0
155 -155 0
156 -156 0
68 -167 0
68 -168 0
167 -167 0
168 -168 0
82 -179 0
82 -180 0
179 -179 0
180 -180 0
96 -191 0
96 -192 0
191 -191 0
192 -192 0
110 -203 0
110 -204 0
203 -203 0
204 -204 0
13 -229 -119 0
-13 229 -119 0
13 229 -120 0
-13 -229 -120 0
27 -229 -131 0
-27 229 -131 0
27 229 -132 0
-27 -229 -132 0
41 -229 -143 0
-41 229 -143 0
41 229 -144 0
-41 -229 -144 0
55 -229 -155 0
-55 229 -155 0
55 229 -156 0
-55 -229 -156 0
69 -229 -167 0
-69 229 -167 0
69 229 -168 0
-69 -229 -168 0
83 -229 -179 0
-83 229 -179 0
83 229 -180 0
-83 -229 -180 0
97 -229 -191 0
-97 229 -191 0
97 229 -192 0
-97 -229 -192 0
111 -229 -203 0
-111 229 -203 0
111 229 -204 0
-111 -229 -204 0
14 -119 0
14 -120 0
119 -119 0
120 -120 0
28 -131 0
28 -132 0
131 -131 0
132 -132 0
42 -143 0
42 -144 0
143 -143 0
144 -144 0
56 -155 0
56 -156 0
155 -155 0
156 -156 0
70 -167 0
70 -168 0
167 -167 0
168 -168 0
84 -179 0
84 -180 0
179 -179 0
180 -180 0
98 -191 0
98 -192 0
191 -191 0
192 -192 0
112 -203 0
112 -204 0
203 -203 0
204 -204 0
-299 119 0
299 -119 0
-300 120 0
299 -120 0
-299 -119 0
-300 -120 0
-311 119 299 0
311 -119 0
311 -299 0
-312 120 300 0
312 -120 0
312 -300 0
-311 -131 0
-312 -132 0
-323 131 311 0
323 -131 0
323 -311 0
-324 132 312 0
324 -132 0
324 -312 0
-323 -143 0
-324 -144 0
-335 143 323 0
335 -143 0
335 -323 0
-336 144 324 0
336 -144 0
336 -324 0
-335 -155 0
-336 -156 0
-347 155 335 0
347 -155 0
347 -335 0
-348 156 336 0
348 -156 0
348 -336 0
-347 -167 0
-348 -168 0
-359 167 347 0
359 -167 0
359 -347 0
-360 168 348 0
360 -168 0
360 -348 0
-359 -179 0
-360 -180 0
-371 179 359 0
371 -179 0
371 -359 0
-372 180 360 0
372 -180 0
372 -360 0
-371 -191 0
-372 -192 0
-383 191 371 0
383 -191 0
383 -371 0
-384 192 372 0
384 -192 0
384 -372 0
-383 -203 0
-384 -204 0
383 0
384 0
1 -230 -121 0
-1 230 -121 0
1 230 -122 0
-1 -230 -122 0
15 -230 -133 0
-15 230 -133 0
15 230 -134 0
-15 -230 -134 0
29 -230 -145 0
-29 230 -145 0
29 230 -146 0
-29 -230 -146 0
43 -230 -157 0
-43 230 -157 0
43 230 -158 0
-43 -230 -158 0
57 -230 -169 0
-57 230 -169 0
57 230 -170 0
-57 -230 -170 0
71 -230 -181 0
-71 230 -181 0
71 230 -182 0
-71 -230 -182 0
85 -230 -193 0
-85 230 -193 0
85 230 -194 0
-85 -230 -194 0
99 -230 -205 0
-99 230 -205 0
99 230 -206 0
-99 -230 -206 0
2 -121 0
2 -122 0
121 -121 0
122 -122 0
16 -133 0
16 -134 0
133 -133 0
134 -134 0
30 -145 0
30 -146 0
145 -145 0
146 -146 0
44 -157 0
44 -158 0
157 -157 0
158 -158 0
58 -169 0
58 -170 0
169 -169 0
170 -170 0
72 -181 0
72 -182 0
181 -181 0
182 -182 0
86 -193 0
86 -194 0
193 -193 0
194 -194 0
100 -205 0
100 -206 0
205 -205 0
206 -206 0
3 -121 0
3 -122 0
121 -121 0
122 -122 0
17 -133 0
17 -134 0
133 -133 0
134 -134 0
31 -145 0
31 -146 0
145 -145 0
146 -146 0
45 -157 0
45 -158 0
157 -157 0
158 -158 0
59 -169 0
59 -170 0
169 -169 0
170 -170 0
73 -181 0
73 -182 0
181 -181 0
182 -182 0
87 -193 0
87 -194 0
193 -193 0
194 -194 0
101 -205 0
101 -206 0
205 -205 0
206 -206 0
4 -121 0
4 -122 0
121 -121 0
122 -122 0
18 -133 0
18 -134 0
133 -133 0
134 -134 0
32 -145 0
32 -146 0
145 -145 0
146 -146 0
46 -157 0
46 -158 0
157 -157 0
158 -158 0
60 -169 0
60 -170 0
169 -169 0
170 -170 0
74 -181 0
74 -182 0
181 -181 0
182 -182 0
88 -193 0
88 -194 0
193 -193 0
194 -194 0
102 -205 0
102 -206 0
205 -205 0
206 -206 0
5 -231 -121 0
-5 231 -121 0
5 231 -122 0
-5 -231 -122 0
19 -231 -133 0
-19 231 -133 0
19 231 -134 0
-19 -231 -134 0
33 -231 -145 0
-33 231 -145 0
33 231 -146 0
-33 -231 -146 0
47 -231 -157 0
-47 231 -157 0
47 231 -158 0
-47 -231 -158 0
61 -231 -169 0
-61 231 -169 0
61 231 -170 0
-61 -231 -170 0
75 -231 -181 0
-75 231 -181 0
75 231 -182 0
-75 -231 -182 0
89 -231 -193 0
-89 231 -193 0
89 231 -194 0
-89 -231 -194 0
103 -231 -205 0
-103 231 -205 0
103 231 -206 0
-103 -231 -206 0
-6 -121 0
-6 -122 0
121 -121 0
122 -122 0
-20 -133 0
-20 -134 0
133 -133 0
134 -134 0
-34 -145 0
-34 -146 0
145 -145 0
146 -146 0
-48 -157 0
-48 -158 0
157 -157 0
158 -158 0
-62 -169 0
-62 -170 0
169 -169 0
170 -170 0
-76 -181 0
-76 -182 0
181 -181 0
182 -182 0
-90 -193 0
-90 -194 0
193 -193 0
194 -194 0
-104 -205 0
-104 -206 0
205 -205 0
206 -206 0
7 -232 -121 0
-7 232 -121 0
7 232 -122 0
-7 -232 -122 0
21 -232 -133 0
-21 232 -133 0
21 232 -134 0
-21 -232 -134 0
35 -232 -145 0
-35 232 -145 0
35 232 -146 0
-35 -232 -146 0
49 -232 -157 0
-49 232 -157 0
49 232 -158 0
-49 -232 -158 0
63 -232 -169 0
-63 232 -169 0
63 232 -170 0
-63 -232 -170 0
77 -232 -181 0
-77 232 -181 0
77 232 -182 0
-77 -232 -182 0
91 -232 -193 0
-91 232 -193 0
91 232 -194 0
-91 -232 -194 0
105 -232 -205 0
-105 232 -205 0
105 232 -206 0
-105 -232 -206 0
8 -121 0
8 -122 0
121 -121 0
122 -122 0
22 -133 0
22 -134 0
133 -133 0
134 -134 0
36 -145 0
36 -146 0
145 -145 0
146 -146 0
50 -157 0
50 -158 0
157 -157 0
158 -158 0
64 -169 0
64 -170 0
169 -169 0
170 -170 0
78 -181 0
78 -182 0
181 -181 0
182 -182 0
92 -193 0
92 -194 0
193 -193 0
194 -194 0
106 -205 0
106 -206 0
205 -205 0
206 -206 0
9 -233 -121 0
-9 233 -121 0
9 233 -122 0
-9 -233 -122 0
23 -233 -133 0
-23 233 -133 0
23 233 -134 0
-23 -233 -134 0
37 -233 -145 0
-37 233 -145 0
37 233 -146 0
-37 -233 -146 0
51 -233 -157 0
-51 233 -157 0
51 233 -158 0
-51 -233 -158 0
65 -233 -169 0
-65 233 -169 0
65 233 -170 0
-65 -233 -170 0
79 -233 -181 0
-79 233 -181 0
79 233 -182 0
-79 -233 -182 0
93 -233 -193 0
-93 233 -193 0
93 233 -194 0
-93 -233 -194 0
107 -233 -205 0
-107 233 -205 0
107 233 -206 0
-107 -233 -206 0
10 -234 -121 0
-10 234 -121 0
10 234 -122 0
-10 -234 -122 0
24 -234 -133 0
-24 234 -133 0
24 234 -134 0
-24 -234 -134 0
38 -234 -145 0
-38 234 -145 0
38 234 -146 0
-38 -234 -146 0
52 -234 -157 0
-52 234 -157 0
52 234 -158 0
-52 -234 -158 0
66 -234 -169 0
-66 234 -169 0
66 234 -170 0
-66 -234 -170 0
80 -234 -181 0
-80 234 -181 0
80 234 -182 0
-80 -234 -182 0
94 -234 -193 0
-94 234 -193 0
94 234 -194 0
-94 -234 -194 0
108 -234 -205 0
-108 234 -205 0
108 234 -206 0
-108 -234 -206 0
11 -235 -121 0
-11 235 -121 0
11 235 -122 0
-11 -235 -122 0
25 -235 -133 0
-25 235 -133 0
25 235 -134 0
-25 -235 -134 0
39 -235 -145 0
-39 235 -145 0
39 235 -146 0
-39 -235 -146 0
53 -235 -157 0
-53 235 -157 0
53 235 -158 0
-53 -235 -158 0
67 -235 -169 0
-67 235 -169 0
67 235 -170 0
-67 -235 -170 0
81 -235 -181 0
-81 235 -181 0
81 235 -182 0
-81 -235 -182 0
95 -235 -193 0
-95 235 -193 0
95 235 -194 0
-95 -235 -194 0
109 -235 -205 0
-109 235 -205 0
109 235 -206 0
-109 -235 -206 0
12 -121 0
12 -122 0
121 -121 0
122 -122 0
26 -133 0
26 -134 0
133 -133 0
134 -134 0
40 -145 0
40 -146 0
145 -145 0
146 -146 0
54 -157 0
54 -158 0
157 -157 0
158 -158 0
68 -169 0
68 -170 0
169 -169 0
170 -170 0
82 -181 0
82 -182 0
181 -181 0
182 -182 0
96 -193 0
96 -194 0
193 -193 0
194 -194 0
110 -205 0
110 -206 0
205 -205 0
206 -206 0
13 -236 -121 0
-13 236 -121 0
13 236 -122 0
-13 -236 -122 0
27 -236 -133 0
-27 236 -133 0
27 236 -134 0
-27 -236 -134 0
41 -236 -145 0
-41 236 -145 0
41 236 -146 0
-41 -236 -146 0
55 -236 -157 0
-55 236 -157 0
55 236 -158 0
-55 -236 -158 0
69 -236 -169 0
-69 236 -169 0
69 236 -170 0
-69 -236 -170 0
83 -236 -181 0
-83 236 -181 0
83 236 -182 0
-83 -236 -182 0
97 -236 -193 0
-97 236 -193 0
97 236 -194 0
-97 -236 -194 0
111 -236 -205 0
-111 236 -205 0
111 236 -206 0
-111 -236 -206 0
14 -121 0
14 -122 0
121 -121 0
122 -122 0
28 -133 0
28 -134 0
133 -133 0
134 -134 0
42 -145 0
42 -146 0
145 -145 0
146 -146 0
56 -157 0
56 -158 0
157 -157 0
158 -158 0
70 -169 0
70 -170 0
169 -169 0
170 -170 0
84 -181 0
84 -182 0
181 -181 0
182 -182 0
98 -193 0
98 -194 0
193 -193 0
194 -194 0
112 -205 0
112 -206 0
205 -205 0
206 -206 0
-301 121 0
301 -121 0
-302 122 0
301 -122 0
-301 -121 0
-302 -122 0
-313 121 301 0
313 -121 0
313 -301 0
-314 122 302 0
314 -122 0
314 -302 0
-313 -133 0
-314 -134 0
-325 133 313 0
325 -133 0
325 -313 0
-326 134 314 0
326 -134 0
326 -314 0
-325 -145 0
-326 -146 0
-337 145 325 0
337 -145 0
337 -325 0
-338 146 326 0
338 -146 0
338 -326 0
-337 -157 0
-338 -158 0
-349 157 337 0
349 -157 0
349 -337 0
-350 158 338 0
350 -158 0
350 -338 0
-349 -169 0
-350 -170 0
-361 169 349 0
361 -169 0
361 -349 0
-362 170 350 0
362 -170 0
362 -350 0
-361 -181 0
-362 -182 0
-373 181 361 0
373 -181 0
373 -361 0
-374 182 362 0
374 -182 0
374 -362 0
-373 -193 0
-374 -194 0
-385 193 373 0
385 -193 0
385 -373 0
-386 194 374 0
386 -194 0
386 -374 0
-385 -205 0
-386 -206 0
385 0
386 0
1 -237 -123 0
-1 237 -123 0
1 237 -124 0
-1 -237 -124 0
15 -237 -135 0
-15 237 -135 0
15 237 -136 0
-15 -237 -136 0
29 -237 -147 0
-29 237 -147 0
29 237 -148 0
-29 -237 -148 0
43 -237 -159 0
-43 237 -159 0
43 237 -160 0
-43 -237 -160 0
57 -237 -171 0
-57 237 -171 0
57 237 -172 0
-57 -237 -172 0
71 -237 -183 0
-71 237 -183 0
71 237 -184 0
-71 -237 -184 0
85 -237 -195 0
-85 237 -195 0
85 237 -196 0
-85 -237 -196 0
99 -237 -207 0
-99 237 -207 0
99 237 -208 0
-99 -237 -208 0
2 -123 0
2 -124 0
123 -123 0
124 -124 0
16 -135 0
16 -136 0
135 -135 0
136 -136 0
30 -147 0
30 -148 0
147 -147 0
148 -148 0
44 -159 0
44 -160 0
159 -159 0
160 -160 0
58 -171 0
58 -172 0
171 -171 0
172 -172 0
72 -183 0
72 -184 0
183 -183 0
184 -184 0
86 -195 0
86 -196 0
195 -195 0
196 -196 0
100 -207 0
100 -208 0
207 -207 0
208 -208 0
3 -123 0
3 -124 0
123 -123 0
124 -124 0
17 -135 0
17 -136 0
135 -135 0
136 -136 0
31 -147 0
31 -148 0
147 -147 0
148 -148 0
45 -159 0
45 -160 0
159 -159 0
160 -160 0
59 -171 0
59 -172 0
171 -171 0
172 -172 0
73 -183 0
73 -184 0
183 -183 0
184 -184 0
87 -195 0
87 -196 0
195 -195 0
196 -196 0
101 -207 0
101 -208 0
207 -207 0
208 -208 0
4 -238 -123 0
-4 238 -123 0
4 238 -124 0
-4 -238 -124 0
18 -238 -135 0
-18 238 -135 0
18 238 -136 0
-18 -238 -136 0
32 -238 -147 0
-32 238 -147 0
32 238 -148 0
-32 -238 -148 0
46 -238 -159 0
-46 238 -159 0
46 238 -160 0
-46 -238 -160 0
60 -238 -171 0
-60 238 -171 0
60 238 -172 0
-60 -238 -172 0
74 -238 -183 0
-74 238 -183 0
74 238 -184 0
-74 -238 -184 0
88 -238 -195 0
-88 238 -195 0
88 238 -196 0
-88 -238 -196 0
102 -238 -207 0
-102 238 -207 0
102 238 -208 0
-102 -238 -208 0
5 -123 0
5 -124 0
123 -123 0
124 -124 0
19 -135 0
19 -136 0
135 -135 0
136 -136 0
33 -147 0
33 -148 0
147 -147 0
148 -148 0
47 -159 0
47 -160 0
159 -159 0
160 -160 0
61 -171 0
61 -172 0
171 -171 0
172 -172 0
75 -183 0
75 -184 0
183 -183 0
184 -184 0
89 -195 0
89 -196 0
195 -195 0
196 -196 0
103 -207 0
103 -208 0
207 -207 0
208 -208 0
6 -123 0
6 -124 0
123 -123 0
124 -124 0
20 -135 0
20 -136 0
135 -135 0
136 -136 0
34 -147 0
34 -148 0
147 -147 0
148 -148 0
48 -159 0
48 -160 0
159 -159 0
160 -160 0
62 -171 0
62 -172 0
171 -171 0
172 -172 0
76 -183 0
76 -184 0
183 -183 0
184 -184 0
90 -195 0
90 -196 0
195 -195 0
196 -196 0
104 -207 0
104 -208 0
207 -207 0
208 -208 0
7 -123 0
7 -124 0
123 -123 0
124 -124 0
21 -135 0
21 -136 0
135 -135 0
136 -136 0
35 -147 0
35 -148 0
147 -147 0
148 -148 0
49 -159 0
49 -160 0
159 -159 0
160 -160 0
63 -171 0
63 -172 0
171 -171 0
172 -172 0
77 -183 0
77 -184 0
183 -183 0
184 -184 0
91 -195 0
91 -196 0
195 -195 0
196 -196 0
105 -207 0
105 -208 0
207 -207 0
208 -208 0
-8 -123 0
-8 -124 0
123 -123 0
124 -124 0
-22 -135 0
-22 -136 0
135 -135 0
136 -136 0
-36 -147 0
-36 -148 0
147 -147 0
148 -148 0
-50 -159 0
-50 -160 0
159 -159 0
160 -160 0
-64 -171 0
-64 -172 0
171 -171 0
172 -172 0
-78 -183 0
-78 -184 0
183 -183 0
184 -184 0
-92 -195 0
-92 -196 0
195 -195 0
196 -196 0
-106 -207 0
-106 -208 0
207 -207 0
208 -208 0
9 -123 0
9 -124 0
123 -123 0
124 -124 0
23 -135 0
23 -136 0
135 -135 0
136 -136 0
37 -147 0
37 -148 0
147 -147 0
148 -148 0
51 -159 0
51 -160 0
159 -159 0
160 -160 0
65 -171 0
65 -172 0
171 -171 0
172 -172 0
79 -183 0
79 -184 0
183 -183 0
184 -184 0
93 -195 0
93 -196 0
195 -195 0
196 -196 0
107 -207 0
107 -208 0
207 -207 0
208 -208 0
-10 -123 0
-10 -124 0
123 -123 0
124 -124 0
-24 -135 0
-24 -136 0
135 -135 0
136 -136 0
-38 -147 0
-38 -148 0
147 -147 0
148 -148 0
-52 -159 0
-52 -160 0
159 -159 0
160 -160 0
-66 -171 0
-66 -172 0
171 -171 0
172 -172 0
-80 -183 0
-80 -184 0
183 -183 0
184 -184 0
-94 -195 0
-94 -196 0
195 -195 0
196 -196 0
-108 -207 0
-108 -208 0
207 -207 0
208 -208 0
11 -123 0
11 -124 0
123 -123 0
124 -124 0
25 -135 0
25 -136 0
135 -135 0
136 -136 0
39 -147 0
39 -148 0
147 -147 0
148 -148 0
53 -159 0
53 -160 0
159 -159 0
160 -160 0
67 -171 0
67 -172 0
171 -171 0
172 -172 0
81 -183 0
81 -184 0
183 -183 0
184 -184 0
95 -195 0
95 -196 0
195 -195 0
196 -196 0
109 -207 0
109 -208 0
207 -207 0
208 -208 0
12 -123 0
12 -124 0
123 -123 0
124 -124 0
26 -135 0
26 -136 0
135 -135 0
136 -136 0
40 -147 0
40 -148 0
147 -147 0
148 -148 0
54 -159 0
54 -160 0
159 -159 0
160 -160 0
68 -171 0
68 -172 0
171 -171 0
172 -172 0
82 -183 0
82 -184 0
183 -183 0
184 -184 0
96 -195 0
96 -196 0
195 -195 0
196 -196 0
110 -207 0
110 -208 0
207 -207 0
208 -208 0
13 -123 0
13 -124 0
123 -123 0
124 -124 0
27 -135 0
27 -136 0
135 -135 0
136 -136 0
41 -147 0
41 -148 0
147 -147 0
148 -148 0
55 -159 0
55 -160 0
159 -159 0
160 -160 0
69 -171 0
69 -172 0
171 -171 0
172 -172 0
83 -183 0
83 -184 0
183 -183 0
184 -184 0
97 -195 0
97 -196 0
195 -195 0
196 -196 0
111 -207 0
111 -208 0
207 -207 0
208 -208 0
-14 -123 0
-14 -124 0
123 -123 0
124 -124 0
-28 -135 0
-28 -136 0
135 -135 0
136 -136 0
-42 -147 0
-42 -148 0
147 -147 0
148 -148 0
-56 -159 0
-56 -160 0
159 -159 0
160 -160 0
-70 -171 0
-70 -172 0
171 -171 0
172 -172 0
-84 -183 0
-84 -184 0
183 -183 0
184 -184 0
-98 -195 0
-98 -196 0
195 -195 0
196 -196 0
-112 -207 0
-112 -208 0
207 -207 0
208 -208 0
-303 123 0
303 -123 0
-304 124 0
303 -124 0
-303 -123 0
-304 -124 0
-315 123 303 0
315 -123 0
315 -303 0
-316 124 304 0
316 -124 0
316 -304 0
-315 -135 0
-316 -136 0
-327 135 315 0
327 -135 0
327 -315 0
-328 136 316 0
328 -136 0
328 -316 0
-327 -147 0
-328 -148 0
-339 147 327 0
339 -147 0
339 -327 0
-340 148 328 0
340 -148 0
340 -328 0
-339 -159 0
-340 -160 0
-351 159 339 0
351 -159 0
351 -339 0
-352 160 340 0
352 -160 0
352 -340 0
-351 -171 0
-352 -172 0
-363 171 351 0
363 -171 0
363 -351 0
-364 172 352 0
364 -172 0
364 -352 0
-363 -183 0
-364 -184 0
-375 183 363 0
375 -183 0
375 -363 0
-376 184 364 0
376 -184 0
376 -364 0
-375 -195 0
-376 -196 0
-387 195 375 0
387 -195 0
387 -375 0
-388 196 376 0
388 -196 0
388 -376 0
-387 -207 0
-388 -208 0
387 0
388 0
